50, 125050
20, 5000
24, 5004
48, 5001
16, 5000
17, 5000
47, 5002
37, 5004
1, 5004
35, 5001
17, 5003
24, 5004
30, 5003
42, 5000
34, 5002
16, 5003
1, 5000
10, 5000
40, 5003
32, 5000
2, 5001
29, 5001
40, 5003
14, 5002
30, 5003
7, 5004
10, 5003
34, 5002
25, 5000
22, 5001
38, 5003
1, 5000
42, 5003
10, 5001
21, 5001
47, 5004
41, 5002
44, 5000
11, 5002
26, 5002
39, 5004
35, 5002
44, 5003
32, 5002
25, 5004
27, 5002
49, 5004
12, 5003
34, 5003
40, 5000
21, 5002
